20
1 0 13
2 0 35
2 1 25
3 0 8
3 1 7
3 2 28
4 0 32
4 1 30
4 3 33
5 0 24
5 3 3
5 4 20
6 0 7
6 1 33
6 2 33
6 3 31
6 4 19
6 5 27
7 0 13
7 1 9
7 2 21
7 3 36
7 5 18
7 6 22
8 0 38
8 1 9
8 2 12
8 3 17
8 4 5
8 5 23
8 6 28
8 7 36
9 0 10
9 1 11
9 3 5
9 5 20
9 6 36
9 7 34
9 8 15
10 0 39
10 2 23
10 3 22
10 4 28
10 5 4
10 6 6
10 8 34
10 9 9
11 1 3
11 3 22
11 4 13
11 6 5
11 7 11
11 9 9
11 10 21
12 0 5
12 1 39
12 2 29
12 3 13
12 4 33
12 5 10
12 8 24
12 9 3
12 10 4
12 11 36
13 0 6
13 1 24
13 2 39
13 3 36
13 4 27
13 5 39
13 7 38
13 8 35
13 10 4
13 11 36
13 12 3
14 0 32
14 1 2
14 2 26
14 4 11
14 6 3
14 7 30
14 8 4
14 9 8
14 10 32
14 11 28
14 12 15
15 0 31
15 1 28
15 2 31
15 3 9
15 4 7
15 5 15
15 6 37
15 7 35
15 8 13
15 9 16
15 10 18
15 11 15
15 12 33
15 13 36
15 14 26
16 0 17
16 1 6
16 3 7
16 4 21
16 5 15
16 6 14
16 7 35
16 8 36
16 9 24
16 10 37
16 12 26
16 13 14
16 14 17
16 15 6
17 0 36
17 1 1
17 3 19
17 4 4
17 5 33
17 6 8
17 8 38
17 9 33
17 10 4
17 11 26
17 12 21
17 13 23
17 14 26
17 15 28
17 16 4
18 0 35
18 1 23
18 2 20
18 3 3
18 4 25
18 5 32
18 6 24
18 7 24
18 8 3
18 9 31
18 10 29
18 12 28
18 13 5
18 14 18
18 15 37
18 16 19
18 17 3
19 0 26
19 1 5
19 2 13
19 3 28
19 5 25
19 6 22
19 7 2
19 8 32
19 9 24
19 10 5
19 11 40
19 13 38
19 14 35
19 15 8
19 16 29
19 18 7
